words_hard_train/4038.qaiger
aag 94 16 0 1 78
2
4
12
20
30
38
50
58
70
78
90
98
112
114
122
138
188
6 3 4
8 2 5
10 7 9
14 11 13
16 10 12
18 15 17
22 18 20
24 22 3
26 25 17
28 9 5
32 29 30
34 28 31
36 33 35
40 36 39
42 37 38
44 41 43
46 27 44
48 47 43
52 34 51
54 35 50
56 53 55
60 57 59
62 56 58
64 61 63
66 49 64
68 67 63
72 55 71
74 54 70
76 73 75
80 77 79
82 76 78
84 81 83
86 69 84
88 87 83
92 75 91
94 74 90
96 93 95
100 97 99
102 96 98
104 101 103
106 88 105
108 89 104
110 107 109
116 112 114
118 113 115
120 117 119
124 94 122
126 121 124
128 120 125
130 127 129
132 109 103
134 95 123
136 135 125
140 137 139
142 136 138
144 141 143
146 133 144
148 147 143
150 131 149
152 111 151
154 19 21
156 154 2
158 157 25
160 26 45
162 161 47
164 159 163
166 48 65
168 167 67
170 164 169
172 170 87
174 68 85
176 172 175
178 132 145
180 179 147
182 176 181
184 130 148
186 182 185
188 152 186
i0 2 y2[0]
i1 2 y2[1]
i2 1 x1[1]
i3 1 x1[0]
i4 2 y2[2]
i5 1 x1[2]
i6 2 y2[3]
i7 1 x1[3]
i8 2 y2[4]
i9 1 x1[4]
i10 2 y2[5]
i11 1 x1[5]
i12 2 y2[7]
i13 1 x1[7]
i14 2 y2[6]
i15 1 x1[6]
o0 bool[0]
c
simplified
  ==
    << 4
      1
    add
      add
        2 y2
        -121
      1 x1
