words_hard_train/4038.qaiger.qdimacs
p cnf 94 235
a 69 6 39 10 49 19 57 29 0
e 1 2 3 4 5 7 8 9 11 12 13 14 15 16 17 18 20 21 22 23 24 25 26 27 28 30 31 32 33 34 35 36 37 38 40 41 42 43 44 45 46 47 48 50 51 52 53 54 55 56 58 59 60 61 62 63 64 65 66 67 68 70 71 72 73 74 75 76 77 78 79 80 81 82 83 84 85 86 87 88 89 90 91 92 93 94 0
1 -2 3 0
-1 -3 0
2 -3 0
-1 2 4 0
1 -4 0
-2 -4 0
3 4 5 0
-3 -5 0
-4 -5 0
5 6 7 0
-5 -7 0
-6 -7 0
-5 -6 8 0
5 -8 0
6 -8 0
7 8 9 0
-7 -9 0
-8 -9 0
-9 -10 11 0
9 -11 0
10 -11 0
-11 1 12 0
11 -12 0
-1 -12 0
12 8 13 0
-12 -13 0
-8 -13 0
4 2 14 0
-4 -14 0
-2 -14 0
14 -15 16 0
-14 -16 0
15 -16 0
-14 15 17 0
14 -17 0
-15 -17 0
16 17 18 0
-16 -18 0
-17 -18 0
-18 19 20 0
18 -20 0
-19 -20 0
18 -19 21 0
-18 -21 0
19 -21 0
20 21 22 0
-20 -22 0
-21 -22 0
13 -22 23 0
-13 -23 0
22 -23 0
23 21 24 0
-23 -24 0
-21 -24 0
-17 25 26 0
17 -26 0
-25 -26 0
17 -25 27 0
-17 -27 0
25 -27 0
26 27 28 0
-26 -28 0
-27 -28 0
28 29 30 0
-28 -30 0
-29 -30 0
-28 -29 31 0
28 -31 0
29 -31 0
30 31 32 0
-30 -32 0
-31 -32 0
24 -32 33 0
-24 -33 0
32 -33 0
33 31 34 0
-33 -34 0
-31 -34 0
27 35 36 0
-27 -36 0
-35 -36 0
-27 -35 37 0
27 -37 0
35 -37 0
36 37 38 0
-36 -38 0
-37 -38 0
38 39 40 0
-38 -40 0
-39 -40 0
-38 -39 41 0
38 -41 0
39 -41 0
40 41 42 0
-40 -42 0
-41 -42 0
34 -42 43 0
-34 -43 0
42 -43 0
43 41 44 0
-43 -44 0
-41 -44 0
37 45 46 0
-37 -46 0
-45 -46 0
-37 -45 47 0
37 -47 0
45 -47 0
46 47 48 0
-46 -48 0
-47 -48 0
48 49 50 0
-48 -50 0
-49 -50 0
-48 -49 51 0
48 -51 0
49 -51 0
50 51 52 0
-50 -52 0
-51 -52 0
-44 52 53 0
44 -53 0
-52 -53 0
44 -52 54 0
-44 -54 0
52 -54 0
53 54 55 0
-53 -55 0
-54 -55 0
-56 -57 58 0
56 -58 0
57 -58 0
56 57 59 0
-56 -59 0
-57 -59 0
58 59 60 0
-58 -60 0
-59 -60 0
-47 -61 62 0
47 -62 0
61 -62 0
60 -62 63 0
-60 -63 0
62 -63 0
-60 62 64 0
60 -64 0
-62 -64 0
63 64 65 0
-63 -65 0
-64 -65 0
54 51 66 0
-54 -66 0
-51 -66 0
47 61 67 0
-47 -67 0
-61 -67 0
67 62 68 0
-67 -68 0
-62 -68 0
68 69 70 0
-68 -70 0
-69 -70 0
-68 -69 71 0
68 -71 0
69 -71 0
70 71 72 0
-70 -72 0
-71 -72 0
66 -72 73 0
-66 -73 0
72 -73 0
73 71 74 0
-73 -74 0
-71 -74 0
65 74 75 0
-65 -75 0
-74 -75 0
55 75 76 0
-55 -76 0
-75 -76 0
9 10 77 0
-9 -77 0
-10 -77 0
-77 -1 78 0
77 -78 0
1 -78 0
78 12 79 0
-78 -79 0
-12 -79 0
-13 22 80 0
13 -80 0
-22 -80 0
80 23 81 0
-80 -81 0
-23 -81 0
79 81 82 0
-79 -82 0
-81 -82 0
-24 32 83 0
24 -83 0
-32 -83 0
83 33 84 0
-83 -84 0
-33 -84 0
-82 84 85 0
82 -85 0
-84 -85 0
-85 43 86 0
85 -86 0
-43 -86 0
-34 42 87 0
34 -87 0
-42 -87 0
-86 87 88 0
86 -88 0
-87 -88 0
-66 72 89 0
66 -89 0
-72 -89 0
89 73 90 0
-89 -90 0
-73 -90 0
-88 90 91 0
88 -91 0
-90 -91 0
-65 -74 92 0
65 -92 0
74 -92 0
-91 92 93 0
91 -93 0
-92 -93 0
-76 -93 94 0
76 -94 0
93 -94 0
94 0
